Minimize
  - 9 y_0 - 16 y_1 - 18 y_2 - 7 y_3 - 11 y_4 - 23 y_5 - 7 y_6 - 16 y_8
   - 9 y_9 - 18 y_10 - 17 y_11 - 24 y_12 - 5 y_13 - 6 y_14 - 19 y_15
   - 13 y_16 - 20 y_17 - 17 y_18 - 15 y_19 - 12 y_20 - 12 y_21 - 16 y_22
   - 12 y_23 - 15 y_24 - 2 y_25 - 8 y_26 - 16 y_27 - 15 y_28 - 12 y_29
   - 19 y_30 - 19 y_31 - 15 y_32 - 8 y_33 - 5 y_34 - 19 y_35 - 15 y_36
   - 17 y_37 - 15 y_38 - 13 y_39 - 21 y_40 - 16 y_41 - 12 y_42 - 10 y_43
   - 16 y_44 - 23 y_45 - 16 y_46 - 23 y_47 - 13 y_48 - 5 y_49 - 20 y_50
   - 12 y_51 - 25 y_52 - 10 y_53 - 15 y_54 - 14 y_55 - 17 y_56 - 3 y_57
   - 16 y_58 - 7 y_59 - 5 y_60 - 15 y_61 - 19 y_62 - 3 y_63 - 9 y_64
   - 17 y_65 - 19 y_66 - 16 y_67 - 12 y_68 - 12 y_69 - 20 y_70 - 3 y_71
   - 8 y_72 - 17 y_73 - 20 y_74 - 14 y_75 - 10 y_76 - 6 y_77 - 8 y_78
   - 14 y_79 - 15 y_80 - 3 y_81 - 10 y_82 - 19 y_83 - 19 y_84 - 12 y_85
   - 15 y_86 - 12 y_87 - 12 y_88 - 16 y_89 - 16 y_90 - 18 y_91 - 12 y_92
   - 7 y_93 - 19 y_94 - 19 y_95 - 20 y_96 - 6 y_97 - 16 y_98 - 19 y_99
   + 1361 Constant
Subject To
 c_0: y_3 = 1
 c_1_0: y_0 + y_3 + y_6 + y_9 + y_16 + y_21 + y_26 + y_39 + y_42 + y_43
   + y_51 + y_53 + y_64 + y_72 + y_77 + y_78 + y_82 + y_93 >= 1
 c_1_1: y_1 + y_22 + y_27 + y_35 + y_38 + y_46 + y_55 + y_73 + y_75 + y_79
   + y_83 + y_91 + y_99 >= 1
 c_1_2: y_2 + y_10 + y_17 + y_18 + y_24 + y_54 + y_61 + y_65 + y_66 + y_80
   + y_86 + y_96 >= 1
 c_1_3: y_0 + y_3 + y_13 + y_14 + y_26 + y_53 + y_64 + y_72 + y_77 + y_78
   + y_81 + y_82 + y_93 >= 1
 c_1_4: y_4 + y_23 + y_33 + y_59 + y_69 + y_76 + y_79 + y_85 + y_87 >= 1
 c_1_5: y_5 + y_12 + y_40 + y_45 + y_47 + y_52 + y_70 >= 1
 c_1_6: y_0 + y_6 + y_9 + y_26 + y_34 + y_43 + y_49 + y_59 + y_60 + y_63
   + y_72 + y_77 + y_78 + y_93 + y_97 >= 1
 c_1_7: y_7 + y_25 + y_57 + y_63 + y_71 + y_81 >= 1
 c_1_8: y_8 + y_11 + y_16 + y_20 + y_24 + y_36 + y_39 + y_41 + y_44 + y_48
   + y_51 + y_58 + y_61 + y_66 + y_89 + y_92 >= 1
 c_1_9: y_0 + y_6 + y_9 + y_20 + y_26 + y_43 + y_48 + y_51 + y_60 + y_72
   + y_78 + y_82 + y_85 + y_92 + y_93 >= 1
 c_1_10: y_2 + y_10 + y_17 + y_18 + y_24 + y_54 + y_61 + y_65 + y_66 + y_80
   + y_86 + y_96 >= 1
 c_1_11: y_8 + y_11 + y_15 + y_31 + y_37 + y_41 + y_44 + y_50 + y_58 + y_70
   + y_84 + y_89 + y_90 + y_94 >= 1
 c_1_12: y_5 + y_12 + y_45 + y_47 + y_52 >= 1
 c_1_13: y_3 + y_13 + y_14 + y_25 + y_26 + y_57 + y_60 + y_63 + y_64 + y_72
   + y_77 + y_78 + y_81 + y_93 >= 1
 c_1_14: y_3 + y_13 + y_14 + y_26 + y_53 + y_57 + y_64 + y_72 + y_77 + y_78
   + y_81 + y_82 + y_93 >= 1
 c_1_15: y_11 + y_15 + y_31 + y_44 + y_50 + y_58 + y_70 + y_84 + y_89
   + y_94 >= 1
 c_1_16: y_0 + y_8 + y_16 + y_20 + y_21 + y_24 + y_36 + y_39 + y_41 + y_42
   + y_43 + y_48 + y_51 + y_54 + y_61 + y_82 + y_92 >= 1
 c_1_17: y_2 + y_10 + y_17 + y_18 + y_62 + y_65 >= 1
 c_1_18: y_2 + y_10 + y_17 + y_18 + y_24 + y_30 + y_32 + y_54 + y_61 + y_62
   + y_65 + y_80 + y_86 >= 1
 c_1_19: y_19 + y_22 + y_28 + y_37 + y_46 + y_67 + y_69 + y_79 + y_83
   + y_85 + y_87 + y_90 + y_91 + y_95 + y_98 >= 1
 c_1_20: y_8 + y_9 + y_16 + y_20 + y_39 + y_43 + y_44 + y_48 + y_51 + y_58
   + y_85 + y_89 + y_92 >= 1
 c_1_21: y_0 + y_16 + y_21 + y_24 + y_29 + y_32 + y_39 + y_42 + y_53 + y_54
   + y_61 + y_64 + y_68 + y_72 + y_80 + y_82 + y_86 + y_88 >= 1
 c_1_22: y_1 + y_19 + y_22 + y_27 + y_35 + y_38 + y_46 + y_55 + y_73 + y_79
   + y_83 + y_91 + y_95 + y_98 + y_99 >= 1
 c_1_23: y_4 + y_23 + y_38 + y_55 + y_69 + y_75 + y_76 + y_79 + y_87 >= 1
 c_1_24: y_2 + y_8 + y_10 + y_16 + y_18 + y_21 + y_24 + y_36 + y_39 + y_41
   + y_42 + y_54 + y_61 + y_65 + y_80 + y_86 >= 1
 c_1_25: y_7 + y_13 + y_25 + y_34 + y_49 + y_57 + y_60 + y_63 + y_71 + y_81
   >= 1
 c_1_26: y_0 + y_3 + y_6 + y_9 + y_13 + y_14 + y_26 + y_43 + y_60 + y_64
   + y_72 + y_77 + y_78 + y_82 + y_93 >= 1
 c_1_27: y_1 + y_22 + y_27 + y_35 + y_38 + y_46 + y_55 + y_73 + y_75 + y_79
   + y_91 + y_99 >= 1
 c_1_28: y_19 + y_28 + y_37 + y_67 + y_69 + y_79 + y_85 + y_87 + y_90
   + y_98 >= 1
 c_1_29: y_21 + y_29 + y_32 + y_42 + y_53 + y_54 + y_64 + y_68 + y_80
   + y_82 + y_86 + y_88 >= 1
 c_1_30: y_18 + y_30 + y_56 + y_62 >= 1
 c_1_31: y_11 + y_15 + y_31 + y_40 + y_44 + y_50 + y_58 + y_70 + y_84
   + y_89 + y_90 + y_94 >= 1
 c_1_32: y_18 + y_21 + y_29 + y_32 + y_42 + y_54 + y_61 + y_65 + y_68
   + y_80 + y_86 + y_88 >= 1
 c_1_33: y_4 + y_33 + y_34 + y_49 + y_59 + y_60 + y_76 + y_97 >= 1
 c_1_34: y_6 + y_25 + y_33 + y_34 + y_49 + y_59 + y_60 + y_63 + y_71 + y_97
   >= 1
 c_1_35: y_1 + y_22 + y_27 + y_35 + y_46 + y_73 + y_74 + y_83 + y_91 + y_95
   + y_99 >= 1
 c_1_36: y_8 + y_16 + y_24 + y_36 + y_39 + y_41 + y_44 + y_48 + y_51 + y_54
   + y_58 + y_61 + y_65 + y_66 + y_89 >= 1
 c_1_37: y_11 + y_19 + y_28 + y_37 + y_67 + y_83 + y_84 + y_90 + y_91
   + y_94 + y_95 + y_98 >= 1
 c_1_38: y_1 + y_22 + y_23 + y_27 + y_38 + y_46 + y_55 + y_73 + y_75 + y_79
   >= 1
 c_1_39: y_0 + y_8 + y_16 + y_20 + y_21 + y_24 + y_36 + y_39 + y_41 + y_42
   + y_43 + y_48 + y_51 + y_54 + y_61 + y_82 + y_92 >= 1
 c_1_40: y_5 + y_31 + y_40 + y_45 + y_47 + y_84 + y_94 >= 1
 c_1_41: y_8 + y_11 + y_16 + y_24 + y_36 + y_39 + y_41 + y_44 + y_48 + y_51
   + y_54 + y_58 + y_61 + y_66 + y_89 + y_92 >= 1
 c_1_42: y_0 + y_16 + y_21 + y_24 + y_29 + y_32 + y_39 + y_42 + y_43 + y_53
   + y_54 + y_61 + y_64 + y_72 + y_80 + y_82 + y_86 >= 1
 c_1_43: y_0 + y_6 + y_9 + y_16 + y_20 + y_26 + y_39 + y_42 + y_43 + y_48
   + y_51 + y_64 + y_72 + y_78 + y_82 + y_85 + y_92 + y_93 >= 1
 c_1_44: y_8 + y_11 + y_15 + y_20 + y_31 + y_36 + y_41 + y_44 + y_48 + y_50
   + y_58 + y_70 + y_84 + y_89 + y_90 + y_92 + y_94 >= 1
 c_1_45: y_5 + y_12 + y_40 + y_45 + y_47 + y_52 + y_84 + y_94 >= 1
 c_1_46: y_1 + y_19 + y_22 + y_27 + y_35 + y_38 + y_46 + y_55 + y_73 + y_79
   + y_83 + y_91 + y_95 + y_99 >= 1
 c_1_47: y_5 + y_12 + y_40 + y_45 + y_47 + y_52 >= 1
 c_1_48: y_8 + y_9 + y_16 + y_20 + y_36 + y_39 + y_41 + y_43 + y_44 + y_48
   + y_51 + y_58 + y_85 + y_89 + y_92 >= 1
 c_1_49: y_6 + y_25 + y_33 + y_34 + y_49 + y_59 + y_60 + y_63 + y_71 + y_97
   >= 1
 c_1_50: y_11 + y_15 + y_31 + y_44 + y_50 + y_58 + y_66 + y_70 + y_84
   + y_94 + y_96 >= 1
 c_1_51: y_0 + y_8 + y_9 + y_16 + y_20 + y_36 + y_39 + y_41 + y_43 + y_48
   + y_51 + y_85 + y_89 + y_92 >= 1
 c_1_52: y_5 + y_12 + y_45 + y_47 + y_52 >= 1
 c_1_53: y_0 + y_3 + y_14 + y_21 + y_29 + y_42 + y_53 + y_64 + y_68 + y_72
   + y_77 + y_78 + y_82 + y_88 + y_93 >= 1
 c_1_54: y_2 + y_10 + y_16 + y_18 + y_21 + y_24 + y_29 + y_32 + y_36 + y_39
   + y_41 + y_42 + y_54 + y_61 + y_65 + y_80 + y_86 >= 1
 c_1_55: y_1 + y_22 + y_23 + y_27 + y_38 + y_46 + y_55 + y_73 + y_75 + y_79
   + y_87 >= 1
 c_1_56: y_30 + y_56 >= 1
 c_1_57: y_7 + y_13 + y_14 + y_25 + y_57 + y_63 + y_77 + y_81 >= 1
 c_1_58: y_8 + y_11 + y_15 + y_20 + y_31 + y_36 + y_41 + y_44 + y_48 + y_50
   + y_58 + y_70 + y_84 + y_89 + y_90 + y_92 + y_94 >= 1
 c_1_59: y_4 + y_6 + y_33 + y_34 + y_49 + y_59 + y_60 + y_76 + y_97 >= 1
 c_1_60: y_6 + y_9 + y_13 + y_25 + y_26 + y_33 + y_34 + y_49 + y_59 + y_60
   + y_63 + y_71 + y_72 + y_78 + y_81 + y_97 >= 1
 c_1_61: y_2 + y_8 + y_10 + y_16 + y_18 + y_21 + y_24 + y_32 + y_36 + y_39
   + y_41 + y_42 + y_54 + y_61 + y_65 + y_80 + y_86 >= 1
 c_1_62: y_17 + y_18 + y_30 + y_62 + y_86 >= 1
 c_1_63: y_6 + y_7 + y_13 + y_25 + y_34 + y_49 + y_57 + y_60 + y_63 + y_71
   + y_81 + y_97 >= 1
 c_1_64: y_0 + y_3 + y_13 + y_14 + y_21 + y_26 + y_29 + y_42 + y_43 + y_53
   + y_64 + y_72 + y_77 + y_78 + y_82 + y_93 >= 1
 c_1_65: y_2 + y_10 + y_17 + y_18 + y_24 + y_32 + y_36 + y_54 + y_61 + y_65
   + y_66 + y_80 + y_86 >= 1
 c_1_66: y_2 + y_8 + y_10 + y_36 + y_41 + y_50 + y_65 + y_66 + y_70 + y_96
   >= 1
 c_1_67: y_19 + y_28 + y_37 + y_67 + y_90 + y_91 + y_95 + y_98 >= 1
 c_1_68: y_21 + y_29 + y_32 + y_53 + y_68 + y_88 >= 1
 c_1_69: y_4 + y_19 + y_23 + y_28 + y_69 + y_76 + y_79 + y_85 + y_87 >= 1
 c_1_70: y_5 + y_11 + y_15 + y_31 + y_44 + y_50 + y_58 + y_66 + y_70 + y_84
   + y_94 >= 1
 c_1_71: y_7 + y_25 + y_34 + y_49 + y_60 + y_63 + y_71 + y_81 + y_97 >= 1
 c_1_72: y_0 + y_3 + y_6 + y_9 + y_13 + y_14 + y_21 + y_26 + y_42 + y_43
   + y_53 + y_60 + y_64 + y_72 + y_77 + y_78 + y_82 + y_93 >= 1
 c_1_73: y_1 + y_22 + y_27 + y_35 + y_38 + y_46 + y_55 + y_73 + y_75 + y_79
   + y_99 >= 1
 c_1_74: y_35 + y_74 + y_83 + y_91 + y_95 >= 1
 c_1_75: y_1 + y_23 + y_27 + y_38 + y_55 + y_73 + y_75 + y_79 >= 1
 c_1_76: y_4 + y_23 + y_33 + y_59 + y_69 + y_76 + y_85 + y_87 + y_97 >= 1
 c_1_77: y_0 + y_3 + y_6 + y_13 + y_14 + y_26 + y_53 + y_57 + y_64 + y_72
   + y_77 + y_78 + y_81 + y_82 + y_93 >= 1
 c_1_78: y_0 + y_3 + y_6 + y_9 + y_13 + y_14 + y_26 + y_43 + y_53 + y_60
   + y_64 + y_72 + y_77 + y_78 + y_82 + y_93 >= 1
 c_1_79: y_1 + y_4 + y_19 + y_22 + y_23 + y_27 + y_28 + y_38 + y_46 + y_55
   + y_69 + y_73 + y_75 + y_79 + y_87 >= 1
 c_1_80: y_2 + y_10 + y_18 + y_21 + y_24 + y_29 + y_32 + y_42 + y_54 + y_61
   + y_65 + y_80 + y_86 >= 1
 c_1_81: y_3 + y_7 + y_13 + y_14 + y_25 + y_57 + y_60 + y_63 + y_71 + y_77
   + y_81 + y_93 >= 1
 c_1_82: y_0 + y_3 + y_9 + y_14 + y_16 + y_21 + y_26 + y_29 + y_39 + y_42
   + y_43 + y_53 + y_64 + y_72 + y_77 + y_78 + y_82 + y_93 >= 1
 c_1_83: y_1 + y_19 + y_22 + y_35 + y_37 + y_46 + y_74 + y_83 + y_91 + y_95
   + y_98 + y_99 >= 1
 c_1_84: y_11 + y_15 + y_31 + y_37 + y_40 + y_44 + y_45 + y_50 + y_58
   + y_70 + y_84 + y_89 + y_90 + y_94 >= 1
 c_1_85: y_4 + y_9 + y_19 + y_20 + y_28 + y_43 + y_48 + y_51 + y_69 + y_76
   + y_85 + y_87 + y_92 >= 1
 c_1_86: y_2 + y_10 + y_18 + y_21 + y_24 + y_29 + y_32 + y_42 + y_54 + y_61
   + y_62 + y_65 + y_80 + y_86 >= 1
 c_1_87: y_4 + y_19 + y_23 + y_28 + y_55 + y_69 + y_76 + y_79 + y_85 + y_87
   >= 1
 c_1_88: y_21 + y_29 + y_32 + y_53 + y_68 + y_88 >= 1
 c_1_89: y_8 + y_11 + y_15 + y_20 + y_31 + y_36 + y_41 + y_44 + y_48 + y_51
   + y_58 + y_84 + y_89 + y_90 + y_92 + y_94 >= 1
 c_1_90: y_11 + y_19 + y_28 + y_31 + y_37 + y_44 + y_58 + y_67 + y_84
   + y_89 + y_90 + y_94 + y_98 >= 1
 c_1_91: y_1 + y_19 + y_22 + y_27 + y_35 + y_37 + y_46 + y_67 + y_74 + y_83
   + y_91 + y_95 + y_98 + y_99 >= 1
 c_1_92: y_8 + y_9 + y_16 + y_20 + y_39 + y_41 + y_43 + y_44 + y_48 + y_51
   + y_58 + y_85 + y_89 + y_92 >= 1
 c_1_93: y_0 + y_3 + y_6 + y_9 + y_13 + y_14 + y_26 + y_43 + y_53 + y_64
   + y_72 + y_77 + y_78 + y_81 + y_82 + y_93 >= 1
 c_1_94: y_11 + y_15 + y_31 + y_37 + y_40 + y_44 + y_45 + y_50 + y_58
   + y_70 + y_84 + y_89 + y_90 + y_94 >= 1
 c_1_95: y_19 + y_22 + y_35 + y_37 + y_46 + y_67 + y_74 + y_83 + y_91
   + y_95 + y_98 + y_99 >= 1
 c_1_96: y_2 + y_10 + y_50 + y_66 + y_96 >= 1
 c_1_97: y_6 + y_33 + y_34 + y_49 + y_59 + y_60 + y_63 + y_71 + y_76 + y_97
   >= 1
 c_1_98: y_19 + y_22 + y_28 + y_37 + y_67 + y_83 + y_90 + y_91 + y_95
   + y_98 >= 1
 c_1_99: y_1 + y_22 + y_27 + y_35 + y_46 + y_73 + y_83 + y_91 + y_95 + y_99
   >= 1
Bounds
 Constant = 1
Binaries
 y_0 y_1 y_2 y_3 y_4 y_5 y_6 y_7 y_8 y_9 y_10 y_11 y_12 y_13 y_14 y_15 y_16
 y_17 y_18 y_19 y_20 y_21 y_22 y_23 y_24 y_25 y_26 y_27 y_28 y_29 y_30 y_31
 y_32 y_33 y_34 y_35 y_36 y_37 y_38 y_39 y_40 y_41 y_42 y_43 y_44 y_45 y_46
 y_47 y_48 y_49 y_50 y_51 y_52 y_53 y_54 y_55 y_56 y_57 y_58 y_59 y_60 y_61
 y_62 y_63 y_64 y_65 y_66 y_67 y_68 y_69 y_70 y_71 y_72 y_73 y_74 y_75 y_76
 y_77 y_78 y_79 y_80 y_81 y_82 y_83 y_84 y_85 y_86 y_87 y_88 y_89 y_90 y_91
 y_92 y_93 y_94 y_95 y_96 y_97 y_98 y_99
End
